100
17 22
24 22
2 24
24 8
14 8
11 14
1 21
0 17
20 13
23 23
14 9
22 0
19 22
1 9
8 24
15 19
10 15
20 4
14 17
10 14
4 1
7 7
6 6
3 8
23 8
16 4
17 9
9 23
19 1
3 20
13 24
13 20
1 14
3 17
16 11
24 3
22 20
17 24
20 19
9 8
9 0
21 22
22 5
19 19
23 3
17 19
0 5
14 1
2 13
23 4
7 0
11 6
22 22
16 23
7 9
22 7
21 9
21 23
11 15
15 18
22 6
8 4
4 23
17 4
16 24
17 6
18 8
6 24
17 3
12 20
1 11
7 13
14 0
23 12
23 11
13 22
0 15
14 6
23 17
22 9
2 10
16 8
2 2
15 4
2 16
1 10
20 9
23 1
9 15
13 16
21 13
6 13
11 4
8 20
7 16
20 21
4 17
19 6
22 8
1 17
